unsat
(:added-eqs                   534194
 :arith-eq-adapter            1722
 :arith-bound-propagations-lp 13573
 :arith-conflicts             157
 :arith-diseq                 17259
 :arith-fixed-eqs             18188
 :arith-lower                 23089
 :arith-make-feasible         9499
 :arith-max-columns           1113
 :arith-max-rows              568
 :arith-offset-eqs            5135
 :arith-upper                 36412
 :binary-propagations         3696202
 :conflicts                   8272
 :decisions                   425914
 :del-clause                  4596
 :elim-unconstrained          4
 :max-memory                  52.16
 :memory                      35.84
 :minimized-lits              62942
 :mk-bool-var                 16983
 :mk-clause                   16281
 :mk-clause-binary            56274
 :num-allocs                  194521870
 :num-checks                  1
 :propagations                4658880
 :restarts                    60
 :rlimit-count                16480529
 :time                        3.22
 :total-time                  3.38)
